c Created with the Wolfram Language : www.wolfram.com
c 
p edge 80 314
e 1 7
e 2 7
e 1 10
e 5 14
e 8 15
e 13 15
e 15 16
e 14 17
e 10 18
e 16 18
e 17 18
e 7 19
e 16 19
e 18 19
e 14 20
e 2 21
e 10 21
e 18 21
e 14 22
e 16 22
e 19 23
e 8 25
e 13 25
e 24 25
e 24 26
e 1 28
e 4 28
e 16 28
e 14 29
e 20 29
e 2 30
e 4 30
e 5 30
e 14 30
e 4 31
e 27 31
e 5 32
e 21 32
e 16 33
e 27 33
e 29 33
e 1 34
e 4 34
e 6 34
e 24 34
e 28 34
e 4 35
e 7 35
e 8 35
e 20 35
e 25 35
e 27 35
e 30 35
e 33 35
e 12 36
e 14 36
e 30 36
e 7 37
e 9 37
e 17 37
e 31 37
e 2 38
e 9 38
e 10 38
e 13 38
e 14 38
e 15 38
e 26 38
e 33 38
e 5 39
e 6 39
e 7 39
e 14 39
e 15 39
e 19 39
e 29 39
e 3 40
e 18 40
e 20 40
e 24 40
e 31 40
e 4 41
e 23 41
e 15 42
e 20 42
e 1 43
e 4 43
e 12 43
e 17 43
e 36 43
e 6 44
e 9 44
e 10 44
e 16 44
e 28 44
e 41 44
e 8 45
e 22 45
e 27 45
e 29 45
e 9 46
e 13 46
e 14 46
e 30 46
e 31 46
e 33 46
e 36 46
e 40 46
e 1 47
e 4 47
e 9 47
e 31 47
e 32 47
e 7 48
e 10 48
e 15 48
e 28 48
e 1 49
e 3 49
e 14 49
e 25 49
e 35 49
e 42 49
e 2 50
e 10 50
e 18 50
e 29 50
e 39 50
e 42 50
e 44 50
e 3 51
e 10 51
e 13 51
e 17 51
e 22 51
e 25 51
e 39 51
e 42 51
e 3 52
e 12 52
e 32 52
e 44 52
e 47 52
e 10 53
e 18 53
e 27 53
e 28 53
e 37 53
e 51 53
e 15 54
e 25 54
e 28 54
e 29 54
e 37 54
e 40 54
e 41 54
e 52 54
e 11 55
e 3 56
e 5 56
e 46 56
e 47 56
e 10 57
e 21 57
e 23 57
e 30 57
e 33 57
e 43 57
e 46 57
e 47 57
e 54 57
e 2 58
e 7 58
e 10 58
e 11 58
e 14 58
e 21 58
e 28 58
e 30 58
e 34 58
e 50 58
e 16 59
e 49 59
e 9 60
e 14 60
e 16 60
e 23 60
e 27 60
e 30 60
e 38 60
e 48 60
e 15 61
e 22 61
e 41 61
e 20 62
e 30 62
e 38 62
e 41 62
e 49 62
e 5 63
e 18 63
e 24 63
e 26 63
e 35 63
e 38 63
e 40 63
e 45 63
e 48 63
e 49 63
e 50 63
e 19 64
e 20 64
e 22 64
e 24 64
e 49 64
e 60 64
e 29 65
e 36 65
e 41 65
e 52 65
e 4 66
e 20 66
e 37 66
e 56 66
e 12 67
e 18 67
e 19 67
e 28 67
e 1 68
e 25 68
e 28 68
e 40 68
e 18 69
e 33 69
e 37 69
e 44 69
e 52 69
e 65 69
e 1 70
e 5 70
e 10 70
e 14 70
e 47 70
e 52 70
e 54 70
e 56 70
e 63 70
e 65 70
e 17 71
e 18 71
e 54 71
e 56 71
e 61 71
e 16 72
e 45 72
e 53 72
e 59 72
e 65 72
e 68 72
e 71 72
e 10 73
e 15 73
e 39 73
e 40 73
e 53 73
e 57 73
e 62 73
e 68 73
e 69 73
e 6 74
e 17 74
e 24 74
e 34 74
e 38 74
e 49 74
e 3 75
e 8 75
e 22 75
e 25 75
e 27 75
e 35 75
e 46 75
e 58 75
e 72 75
e 3 76
e 19 76
e 21 76
e 26 76
e 30 76
e 35 76
e 72 76
e 17 77
e 44 77
e 47 77
e 69 77
e 1 78
e 3 78
e 14 78
e 21 78
e 39 78
e 60 78
e 11 79
e 20 79
e 67 79
e 1 80
e 18 80
e 26 80
e 43 80
e 54 80
e 59 80
e 63 80
e 68 80
e 78 80
e 79 80
